(set-info :smt-lib-version 2.6)
(set-logic QF_S)
(set-info :source |
Generated by: Murphy Berzish, Mitja Kulczynski, Federico Mora, Florin Manea, Joel Day, Dirk Nowotka, Vijay Ganesh, Zhengyang Lu
Generated on: 2020-10-01
Description: Translated from a collection of real-world regex queries, AutomataArk, collected by Loris D’Antoni and Fang Wang: https://github.com/lorisdanto/automatark
Application: Evaluate solvers on real-world regex queries
Target solver: Z3str3RE, CVC4, OSTRICH, Z3seq, Z3str3, Z3-Trau
Publications: Berzish, M., Kulczynski, M., Mora, F., Manea, F., Day, J. D., Nowotka, D., & Ganesh, V. (2021, July). An SMT solver for regular expressions and linear arithmetic over string length. In CAV 2021.
|)
(set-info :license "https://creativecommons.org/licenses/by/4.0/")
(set-info :category "industrial")
(set-info :status unsat)

(declare-const X String)
(assert (not (str.in_re X (re.++ (re.union (re.++ (re.range "a" "z") (re.range "0" "9")) (re.++ (re.range "0" "9") (re.range "a" "z")) (re.++ (re.union (re.range "a" "z") (re.range "0" "9")) ((_ re.loop 1 2) (re.union (re.range "a" "z") (re.range "0" "9") (str.to_re "-"))) (re.union (re.range "a" "z") (re.range "0" "9"))) (re.++ (re.union (re.range "a" "z") (re.range "0" "9")) (re.union (re.range "a" "z") (re.range "0" "9") (str.to_re "-")) (re.union (re.++ (re.union (re.range "a" "z") (re.range "0" "9") (str.to_re "-")) (re.union (re.range "a" "z") (re.range "0" "9"))) (re.++ (re.union (re.range "a" "z") (re.range "0" "9")) (re.union (re.range "a" "z") (re.range "0" "9") (str.to_re "-")))) (re.* (re.union (re.range "a" "z") (re.range "0" "9") (str.to_re "-"))) (re.union (re.range "a" "z") (re.range "0" "9")))) (str.to_re ".") (re.union (str.to_re "co") (str.to_re "me") (str.to_re "org") (str.to_re "ltd") (str.to_re "plc") (str.to_re "net") (str.to_re "sch") (str.to_re "ac") (str.to_re "mod") (str.to_re "nhs") (str.to_re "police") (str.to_re "gov")) (str.to_re ".uk\u{a}")))))
(assert (str.in_re X (re.union ((_ re.loop 1 1) (re.range "0" "9")) (re.++ ((_ re.loop 1 1) (re.range "1" "6")) ((_ re.loop 1 1) (re.range "0" "3"))) (str.to_re "64") (re.++ (str.to_re "-") ((_ re.loop 1 1) (re.range "1" "9"))) (re.++ (str.to_re "-") ((_ re.loop 1 1) (re.range "1" "6")) ((_ re.loop 1 1) (re.range "0" "3"))) (str.to_re "-64\u{a}"))))
(assert (str.in_re X (re.++ (re.+ (re.range "0" "9")) (re.opt (str.to_re ",")) (re.+ (re.range "0" "9")) (re.opt (str.to_re "$")) (str.to_re "\u{a}"))))
(assert (str.in_re X (re.++ (str.to_re "Google") (re.+ (re.union (str.to_re " ") (str.to_re "\u{9}") (str.to_re "\u{a}") (str.to_re "\u{c}") (str.to_re "\u{d}"))) (str.to_re "-~-GREATHost:FILESIZE>\u{13}\u{a}"))))
(assert (not (str.in_re X (re.++ (str.to_re "/.php?b=") (re.+ (re.union (re.range "A" "F") (re.range "0" "9"))) (str.to_re "&v=1./U\u{a}")))))
(check-sat)

(exit)
